20
587 233 220
90 41 34
64 32 28
42 31 31
94 90 44
68 63 53
55 30 21
72 64 31
75 56 34
62 34 31
79 55 32
99 74 27
89 54 48
93 78 32
119 80 59
80 72 42
111 47 27
73 72 49
115 87 32
100 66 61
80 61 23
thpack7_56